File : Instances/p62
Use 142 s

34325

1 0 0 0 1 0 1 0 0 0 0 0 0 1 0 0 1 0 1 1 1 1 0 1 0 1 0 0 0 0 
18 19 21 18 21 6 21 18 18 0 4 19 13 13 19 18 13 20 16 0 18 16 23 16 23 18 18 19 4 21 19 19 4 16 18 6 20 20 16 16 18 20 6 4 13 19 13 21 19 20 0 16 21 16 20 6 25 20 18 25 4 0 25 20 13 25 23 19 19 25 18 6 6 20 23 23 20 23 20 16 23 0 19 25 4 13 6 23 18 25 0 6 25 25 0 13 18 6 0 19 19 21 25 18 4 0 4 16 16 13 19 4 18 6 6 20 19 25 0 13 20 25 0 19 4 16 21 6 19 0 18 21 25 20 23 20 13 13 19 20 6 18 6 25 25 23 16 16 18 25 0 0 23 0 13 25 21 16 13 13 13 0 13 21 23 18 23 4 13 21 23 20 19 20 4 21 0 20 4 23 23 21 21 19 6 20 6 23 0 21 21 21 6 4 25 6 25 21 23 19 
